examples/dynamic/debug12/RegOctagon-Diagonal_Side.smt2
(set-info :smt-lib-version 2.6)
(set-info :source |The authors Robert Vajda and Zoltan Kovacs released this problem in the paper that can be found in "http://ceur-ws.org/Vol-2752/paper15.pdf". A short description of the problem can be found down below.

RegOctagon-Diagonal_Side:
 Comparison of Diagonal and Side (regular octagon):Let A, B be arbitrary points. Let poly1 be the regular 8-gon with vertices A, B, C, D, E, F, G, H. Let f be the segment A, B. Let n be the segment H, C. Compare segment H, C and segment A, B.

This problem was added to SMT-LIB by Tereso del Rio and Matthew England.| )
(set-info :category "industrial")
(set-info :license "https://creativecommons.org/licenses/by/4.0/")
(set-info :status sat)
(set-logic QF_NRA)
(declare-fun m () Real)
(declare-fun v10 () Real)
(declare-fun v11 () Real)
(declare-fun v12 () Real)
(declare-fun v13 () Real)
(declare-fun v14 () Real)
(declare-fun v15 () Real)
(declare-fun v16 () Real)
(declare-fun v17 () Real)
(declare-fun v18 () Real)
(declare-fun v20 () Real)
(declare-fun v21 () Real)
(declare-fun v7 () Real)
(declare-fun v8 () Real)
(declare-fun v9 () Real)
(assert (and (< 0 m) (< 0 v20) (< 0 v21) (= (+ (* v10 v7) (* (* v7 v8) (- 2) )(* v8 v9) (* v12 (- 1) )v8) 0) (= (+ (* v7 v7) (* (* v8 v8) (- 1) )(* v7 (- 1) )(* v9 (- 1) )1) 0) (= (- (* (* v7 v8) 2) v10 v8) 0) (= (+ (* (* v10 v8) (- 1) )(* (* v7 v7) (- 1) )(* v7 v9) (* v8 v8) (* v11 (- 1) )v7) 0) (= (+ (* v10 v8) (* v11 v7) (* (* v8 v12) (- 1) )(* (* v7 v9) (- 1) )(* v13 (- 1) )v9) 0) (= (+ (* (* v10 v7) (- 1) )(* v11 v8) (* v12 v7) (* (* v8 v9) (- 1) )v10 (* v14 (- 1))) 0) (= (+ (* (* v11 v7) (- 1) )(* v8 v12) (* v13 v7) (* (* v8 v14) (- 1) )v11 (* v15 (- 1))) 0) (= (+ (* (* v11 v8) (- 1) )(* (* v12 v7) (- 1) )(* v8 v13) (* v14 v7) v12 (* v16 (- 1))) 0) (= (+ (* (* v13 v7) (- 1) )(* v8 v14) (* v7 v15) (* (* v8 v16) (- 1) )v13 (* v17 (- 1))) 0) (= (+ (* (* v8 v13) (- 1) )(* (* v14 v7) (- 1) )(* v8 v15) (* v7 v16) v14 (* v18 (- 1))) 0) (= (+ (* v17 v17) (* (* v7 v17) (- 2) )(* v18 v18) (* (* v8 v18) (- 2) )(* (* v20 v20) (- 1) )(* v7 v7) (* v8 v8)) 0) (= (+ (* (* v7 v7) 2) (* v7 (- 4) )1) 0) (= (+ (* v7 v7) (* v8 v8) (* v7 (- 2))) 0) (= (+ (* m (- 1) )v20) 0) (= (+ (* v21 (- 1) )1) 0)))
(check-sat)
(exit)
